letting n =  10
letting blocks =  [[1, 5], [1, 6], [1, 7], [1, 9], [1, 10], [2, 7], [3, 1], [3, 2], [3, 8], [3, 9], [4, 8], [4, 10], [5, 2], [5, 4], [5, 5], [6, 1], [6, 4], [6, 6], [6, 7], [6, 8], [6, 9], [7, 1], [7, 3], [7, 5], [7, 6], [7, 9], [8, 6], [8, 7], [9, 1], [9, 3], [9, 5], [9, 6], [9, 7], [9, 8], [10, 3], [10, 4], [10, 5], [10, 6], [10, 7], [10, 8]]
